c generated by sgen1
c Command: ./sgen1 -unsat -n 37 
p cnf 37 84
-2 -3 -4 0
-1 -3 -4 0
-1 -2 -4 0
-1 -2 -3 0
-6 -7 -8 0
-5 -7 -8 0
-5 -6 -8 0
-5 -6 -7 0
-10 -11 -12 0
-9 -11 -12 0
-9 -10 -12 0
-9 -10 -11 0
-14 -15 -16 0
-13 -15 -16 0
-13 -14 -16 0
-13 -14 -15 0
-18 -19 -20 0
-17 -19 -20 0
-17 -18 -20 0
-17 -18 -19 0
-22 -23 -24 0
-21 -23 -24 0
-21 -22 -24 0
-21 -22 -23 0
-26 -27 -28 0
-25 -27 -28 0
-25 -26 -28 0
-25 -26 -27 0
-30 -31 -32 0
-29 -31 -32 0
-29 -30 -32 0
-29 -30 -31 0
-33 -34 -35  0
-33 -34 -36  0
-33 -34 -37  0
-33 -35 -36  0
-33 -35 -37  0
-33 -36 -37  0
-34 -35 -36  0
-34 -35 -37  0
-34 -36 -37  0
-35 -36 -37  0
10 17 35 0
32 17 35 0
32 10 35 0
32 10 17 0
8 27 12 0
22 27 12 0
22 8 12 0
22 8 27 0
19 15 2 0
24 15 2 0
24 19 2 0
24 19 15 0
18 1 28 0
37 1 28 0
37 18 28 0
37 18 1 0
9 16 33 0
25 16 33 0
25 9 33 0
25 9 16 0
20 31 5 0
13 31 5 0
13 20 5 0
13 20 31 0
29 26 34 0
21 26 34 0
21 29 34 0
21 29 26 0
7 11 4 0
23 11 4 0
23 7 4 0
23 7 11 0
36 30 14  0
36 30 6  0
36 30 3  0
36 14 6  0
36 14 3  0
36 6 3  0
30 14 6  0
30 14 3  0
30 6 3  0
14 6 3  0
